
set Period := 
1
2
3
4
5
6
7
8
9
10
11
12
;
set PeriodStandard := 
1
2
3
4
5
6
7
8
9
10
;
param: dp := 
1 53.0
2 41.0
3 26.0
4 36.0
5 46.0
6 44.0
7 42.0
8 32.0
9 23.0
10 22.0
11 1.0
12 1.0
;
param: TimeEnd := 
1 24.0
2 24.0
3 24.0
4 24.0
5 24.0
6 24.0
7 24.0
8 24.0
9 24.0
10 24.0
11 1.0
12 1.0
;